c PMC file for PBN ISCAS/c432_distill_ISCAS/c432_miter written by probABC
p cnf 591 1512
c ind 1 2 3 4 5 6 7 8 9 10 11 12 13 14 15 16 17 18 19 20 21 22 23 24 25 26 27 28 29 30 31 32 33 34 35 36 524 525 526 527 528 529 530 531 532 533 534 535 536 537 538 539 540 541 542 543 544 545 546 547 548 549 550 551 552 553 554 555 556 557 558 559 560 561 562 563 564 565 566 567 568 569 570 571 572 573 574 0
55 1 -2 0
-55 -1 0
-55 2 0
56 4 -6 0
-56 -4 0
-56 6 0
57 -37 56 0
-57 37 0
-57 -56 0
58 37 -56 0
-58 -37 0
-58 56 0
59 57 58 0
-59 -57 0
-59 -58 0
60 8 -10 0
-60 -8 0
-60 10 0
61 12 -14 0
-61 -12 0
-61 14 0
62 16 -18 0
-62 -16 0
-62 18 0
63 20 -22 0
-63 -20 0
-63 22 0
64 24 -26 0
-64 -24 0
-64 26 0
65 28 -30 0
-65 -28 0
-65 30 0
66 32 -34 0
-66 -32 0
-66 34 0
67 55 -59 0
-67 -55 0
-67 59 0
68 60 -67 0
-68 -60 0
-68 67 0
69 61 -68 0
-69 -61 0
-69 68 0
70 62 -69 0
-70 -62 0
-70 69 0
71 63 -70 0
-71 -63 0
-71 70 0
72 64 -71 0
-72 -64 0
-72 71 0
73 65 -72 0
-73 -65 0
-73 72 0
74 66 -73 0
-74 -66 0
-74 73 0
75 55 -74 0
-75 -55 0
-75 74 0
76 -55 74 0
-76 55 0
-76 -74 0
77 75 76 0
-77 -75 0
-77 -76 0
78 -2 3 0
-78 2 0
-78 -3 0
79 77 -78 0
-79 -77 0
-79 78 0
80 -59 -74 0
-80 59 0
-80 74 0
81 59 74 0
-81 -59 0
-81 -74 0
82 80 81 0
-82 -80 0
-82 -81 0
83 -6 7 0
-83 6 0
-83 -7 0
84 82 -83 0
-84 -82 0
-84 83 0
85 60 -74 0
-85 -60 0
-85 74 0
86 -38 85 0
-86 38 0
-86 -85 0
87 38 -85 0
-87 -38 0
-87 85 0
88 86 87 0
-88 -86 0
-88 -87 0
89 -60 74 0
-89 60 0
-89 -74 0
90 -39 89 0
-90 39 0
-90 -89 0
91 39 -89 0
-91 -39 0
-91 89 0
92 90 91 0
-92 -90 0
-92 -91 0
93 -88 -92 0
-93 88 0
-93 92 0
94 -10 11 0
-94 10 0
-94 -11 0
95 93 -94 0
-95 -93 0
-95 94 0
96 61 -74 0
-96 -61 0
-96 74 0
97 -61 74 0
-97 61 0
-97 -74 0
98 96 97 0
-98 -96 0
-98 -97 0
99 -14 15 0
-99 14 0
-99 -15 0
100 98 -99 0
-100 -98 0
-100 99 0
101 62 -74 0
-101 -62 0
-101 74 0
102 -62 74 0
-102 62 0
-102 -74 0
103 101 102 0
-103 -101 0
-103 -102 0
104 -18 19 0
-104 18 0
-104 -19 0
105 103 -104 0
-105 -103 0
-105 104 0
106 63 -74 0
-106 -63 0
-106 74 0
107 -63 74 0
-107 63 0
-107 -74 0
108 106 107 0
-108 -106 0
-108 -107 0
109 -22 23 0
-109 22 0
-109 -23 0
110 108 -109 0
-110 -108 0
-110 109 0
111 64 -74 0
-111 -64 0
-111 74 0
112 -64 74 0
-112 64 0
-112 -74 0
113 111 112 0
-113 -111 0
-113 -112 0
114 -26 27 0
-114 26 0
-114 -27 0
115 113 -114 0
-115 -113 0
-115 114 0
116 65 -74 0
-116 -65 0
-116 74 0
117 -65 74 0
-117 65 0
-117 -74 0
118 116 117 0
-118 -116 0
-118 -117 0
119 -30 31 0
-119 30 0
-119 -31 0
120 118 -119 0
-120 -118 0
-120 119 0
121 66 -74 0
-121 -66 0
-121 74 0
122 -66 74 0
-122 66 0
-122 -74 0
123 121 122 0
-123 -121 0
-123 -122 0
124 -40 123 0
-124 40 0
-124 -123 0
125 40 -123 0
-125 -40 0
-125 123 0
126 124 125 0
-126 -124 0
-126 -125 0
127 -34 35 0
-127 34 0
-127 -35 0
128 -126 -127 0
-128 126 0
-128 127 0
129 -41 128 0
-129 41 0
-129 -128 0
130 41 -128 0
-130 -41 0
-130 128 0
131 129 130 0
-131 -129 0
-131 -130 0
132 79 84 0
-132 -79 0
-132 -84 0
133 95 -132 0
-133 -95 0
-133 132 0
134 100 -133 0
-134 -100 0
-134 133 0
135 105 -134 0
-135 -105 0
-135 134 0
136 110 -135 0
-136 -110 0
-136 135 0
137 115 -136 0
-137 -115 0
-137 136 0
138 -42 137 0
-138 42 0
-138 -137 0
139 42 -137 0
-139 -42 0
-139 137 0
140 138 139 0
-140 -138 0
-140 -139 0
141 120 140 0
-141 -120 0
-141 -140 0
142 -131 -141 0
-142 131 0
-142 141 0
143 79 -142 0
-143 -79 0
-143 142 0
144 -79 142 0
-144 79 0
-144 -142 0
145 143 144 0
-145 -143 0
-145 -144 0
146 -2 5 0
-146 2 0
-146 -5 0
147 77 -146 0
-147 -77 0
-147 146 0
148 145 -147 0
-148 -145 0
-148 147 0
149 84 -142 0
-149 -84 0
-149 142 0
150 -84 142 0
-150 84 0
-150 -142 0
151 149 150 0
-151 -149 0
-151 -150 0
152 -6 9 0
-152 6 0
-152 -9 0
153 82 -152 0
-153 -82 0
-153 152 0
154 151 -153 0
-154 -151 0
-154 153 0
155 95 -142 0
-155 -95 0
-155 142 0
156 -95 142 0
-156 95 0
-156 -142 0
157 155 156 0
-157 -155 0
-157 -156 0
158 -10 13 0
-158 10 0
-158 -13 0
159 93 -158 0
-159 -93 0
-159 158 0
160 157 -159 0
-160 -157 0
-160 159 0
161 100 -142 0
-161 -100 0
-161 142 0
162 -100 142 0
-162 100 0
-162 -142 0
163 161 162 0
-163 -161 0
-163 -162 0
164 -14 17 0
-164 14 0
-164 -17 0
165 98 -164 0
-165 -98 0
-165 164 0
166 163 -165 0
-166 -163 0
-166 165 0
167 105 -142 0
-167 -105 0
-167 142 0
168 -105 142 0
-168 105 0
-168 -142 0
169 167 168 0
-169 -167 0
-169 -168 0
170 -18 21 0
-170 18 0
-170 -21 0
171 -43 170 0
-171 43 0
-171 -170 0
172 43 -170 0
-172 -43 0
-172 170 0
173 171 172 0
-173 -171 0
-173 -172 0
174 103 173 0
-174 -103 0
-174 -173 0
175 169 -174 0
-175 -169 0
-175 174 0
176 -44 175 0
-176 44 0
-176 -175 0
177 44 -175 0
-177 -44 0
-177 175 0
178 176 177 0
-178 -176 0
-178 -177 0
179 110 -142 0
-179 -110 0
-179 142 0
180 -110 142 0
-180 110 0
-180 -142 0
181 179 180 0
-181 -179 0
-181 -180 0
182 -22 25 0
-182 22 0
-182 -25 0
183 108 -182 0
-183 -108 0
-183 182 0
184 181 -183 0
-184 -181 0
-184 183 0
185 115 -142 0
-185 -115 0
-185 142 0
186 -115 142 0
-186 115 0
-186 -142 0
187 185 186 0
-187 -185 0
-187 -186 0
188 -26 29 0
-188 26 0
-188 -29 0
189 113 -188 0
-189 -113 0
-189 188 0
190 187 -189 0
-190 -187 0
-190 189 0
191 -45 190 0
-191 45 0
-191 -190 0
192 45 -190 0
-192 -45 0
-192 190 0
193 191 192 0
-193 -191 0
-193 -192 0
194 120 -142 0
-194 -120 0
-194 142 0
195 -120 142 0
-195 120 0
-195 -142 0
196 194 195 0
-196 -194 0
-196 -195 0
197 -30 33 0
-197 30 0
-197 -33 0
198 118 -197 0
-198 -118 0
-198 197 0
199 196 -198 0
-199 -196 0
-199 198 0
200 -131 -142 0
-200 131 0
-200 142 0
201 131 142 0
-201 -131 0
-201 -142 0
202 200 201 0
-202 -200 0
-202 -201 0
203 -34 36 0
-203 34 0
-203 -36 0
204 -126 -203 0
-204 126 0
-204 203 0
205 202 -204 0
-205 -202 0
-205 204 0
206 148 154 0
-206 -148 0
-206 -154 0
207 160 -206 0
-207 -160 0
-207 206 0
208 166 -207 0
-208 -166 0
-208 207 0
209 -178 -208 0
-209 178 0
-209 208 0
210 184 -209 0
-210 -184 0
-210 209 0
211 -193 -210 0
-211 193 0
-211 210 0
212 199 -211 0
-212 -199 0
-212 211 0
213 205 -212 0
-213 -205 0
-213 212 0
214 -1 74 0
-214 1 0
-214 -74 0
215 -3 142 0
-215 3 0
-215 -142 0
216 -46 215 0
-216 46 0
-216 -215 0
217 46 -215 0
-217 -46 0
-217 215 0
218 216 217 0
-218 -216 0
-218 -217 0
219 -5 213 0
-219 5 0
-219 -213 0
220 -2 214 0
-220 2 0
-220 -214 0
221 -218 -220 0
-221 218 0
-221 220 0
222 219 -221 0
-222 -219 0
-222 221 0
223 -4 74 0
-223 4 0
-223 -74 0
224 -7 142 0
-224 7 0
-224 -142 0
225 -9 213 0
-225 9 0
-225 -213 0
226 223 224 0
-226 -223 0
-226 -224 0
227 -47 226 0
-227 47 0
-227 -226 0
228 47 -226 0
-228 -47 0
-228 226 0
229 227 228 0
-229 -227 0
-229 -228 0
230 225 229 0
-230 -225 0
-230 -229 0
231 -6 -230 0
-231 6 0
-231 230 0
232 -8 74 0
-232 8 0
-232 -74 0
233 -11 142 0
-233 11 0
-233 -142 0
234 -13 213 0
-234 13 0
-234 -213 0
235 232 233 0
-235 -232 0
-235 -233 0
236 234 -235 0
-236 -234 0
-236 235 0
237 -10 -236 0
-237 10 0
-237 236 0
238 -12 74 0
-238 12 0
-238 -74 0
239 -48 238 0
-239 48 0
-239 -238 0
240 48 -238 0
-240 -48 0
-240 238 0
241 239 240 0
-241 -239 0
-241 -240 0
242 -15 142 0
-242 15 0
-242 -142 0
243 -17 213 0
-243 17 0
-243 -213 0
244 -241 242 0
-244 241 0
-244 -242 0
245 243 -244 0
-245 -243 0
-245 244 0
246 -14 -245 0
-246 14 0
-246 245 0
247 -16 74 0
-247 16 0
-247 -74 0
248 -49 247 0
-248 49 0
-248 -247 0
249 49 -247 0
-249 -49 0
-249 247 0
250 248 249 0
-250 -248 0
-250 -249 0
251 -19 142 0
-251 19 0
-251 -142 0
252 -21 213 0
-252 21 0
-252 -213 0
253 -250 251 0
-253 250 0
-253 -251 0
254 252 -253 0
-254 -252 0
-254 253 0
255 -18 -254 0
-255 18 0
-255 254 0
256 -20 74 0
-256 20 0
-256 -74 0
257 -23 142 0
-257 23 0
-257 -142 0
258 -25 213 0
-258 25 0
-258 -213 0
259 256 257 0
-259 -256 0
-259 -257 0
260 258 -259 0
-260 -258 0
-260 259 0
261 -22 -260 0
-261 22 0
-261 260 0
262 -24 74 0
-262 24 0
-262 -74 0
263 -27 142 0
-263 27 0
-263 -142 0
264 -29 213 0
-264 29 0
-264 -213 0
265 262 263 0
-265 -262 0
-265 -263 0
266 264 -265 0
-266 -264 0
-266 265 0
267 -26 -266 0
-267 26 0
-267 266 0
268 -50 267 0
-268 50 0
-268 -267 0
269 50 -267 0
-269 -50 0
-269 267 0
270 268 269 0
-270 -268 0
-270 -269 0
271 -28 74 0
-271 28 0
-271 -74 0
272 -31 142 0
-272 31 0
-272 -142 0
273 -33 213 0
-273 33 0
-273 -213 0
274 271 272 0
-274 -271 0
-274 -272 0
275 273 -274 0
-275 -273 0
-275 274 0
276 -30 -275 0
-276 30 0
-276 275 0
277 -32 74 0
-277 32 0
-277 -74 0
278 -35 142 0
-278 35 0
-278 -142 0
279 -36 213 0
-279 36 0
-279 -213 0
280 277 278 0
-280 -277 0
-280 -278 0
281 279 -280 0
-281 -279 0
-281 280 0
282 -34 -281 0
-282 34 0
-282 281 0
283 231 237 0
-283 -231 0
-283 -237 0
284 246 -283 0
-284 -246 0
-284 283 0
285 255 -284 0
-285 -255 0
-285 284 0
286 261 -285 0
-286 -261 0
-286 285 0
287 -270 -286 0
-287 270 0
-287 286 0
288 -51 287 0
-288 51 0
-288 -287 0
289 51 -287 0
-289 -51 0
-289 287 0
290 288 289 0
-290 -288 0
-290 -289 0
291 276 290 0
-291 -276 0
-291 -290 0
292 282 -291 0
-292 -282 0
-292 291 0
293 -52 292 0
-293 52 0
-293 -292 0
294 52 -292 0
-294 -52 0
-294 292 0
295 293 294 0
-295 -293 0
-295 -294 0
296 222 -295 0
-296 -222 0
-296 295 0
297 237 -246 0
-297 -237 0
-297 246 0
298 -283 297 0
-298 283 0
-298 -297 0
299 255 -298 0
-299 -255 0
-299 298 0
300 237 246 0
-300 -237 0
-300 -246 0
301 -261 -300 0
-301 261 0
-301 300 0
302 255 -301 0
-302 -255 0
-302 301 0
303 246 255 0
-303 -246 0
-303 -255 0
304 270 -303 0
-304 -270 0
-304 303 0
305 -283 302 0
-305 283 0
-305 -302 0
306 304 -305 0
-306 -304 0
-306 305 0
307 -270 -300 0
-307 270 0
-307 300 0
308 -276 -307 0
-308 276 0
-308 307 0
309 231 297 0
-309 -231 0
-309 -297 0
310 302 -309 0
-310 -302 0
-310 309 0
311 -53 310 0
-311 53 0
-311 -310 0
312 53 -310 0
-312 -53 0
-312 310 0
313 311 312 0
-313 -311 0
-313 -312 0
314 308 313 0
-314 -308 0
-314 -313 0
315 55 56 0
-315 -55 0
-315 -56 0
316 60 -315 0
-316 -60 0
-316 315 0
317 61 -316 0
-317 -61 0
-317 316 0
318 62 -317 0
-318 -62 0
-318 317 0
319 63 -318 0
-319 -63 0
-319 318 0
320 64 -319 0
-320 -64 0
-320 319 0
321 65 -320 0
-321 -65 0
-321 320 0
322 66 -321 0
-322 -66 0
-322 321 0
323 55 -322 0
-323 -55 0
-323 322 0
324 -55 322 0
-324 55 0
-324 -322 0
325 323 324 0
-325 -323 0
-325 -324 0
326 -78 325 0
-326 78 0
-326 -325 0
327 56 -322 0
-327 -56 0
-327 322 0
328 -56 322 0
-328 56 0
-328 -322 0
329 327 328 0
-329 -327 0
-329 -328 0
330 -83 329 0
-330 83 0
-330 -329 0
331 60 -322 0
-331 -60 0
-331 322 0
332 -60 322 0
-332 60 0
-332 -322 0
333 331 332 0
-333 -331 0
-333 -332 0
334 -94 333 0
-334 94 0
-334 -333 0
335 61 -322 0
-335 -61 0
-335 322 0
336 -61 322 0
-336 61 0
-336 -322 0
337 335 336 0
-337 -335 0
-337 -336 0
338 -99 337 0
-338 99 0
-338 -337 0
339 62 -322 0
-339 -62 0
-339 322 0
340 -62 322 0
-340 62 0
-340 -322 0
341 339 340 0
-341 -339 0
-341 -340 0
342 -104 341 0
-342 104 0
-342 -341 0
343 63 -322 0
-343 -63 0
-343 322 0
344 -63 322 0
-344 63 0
-344 -322 0
345 343 344 0
-345 -343 0
-345 -344 0
346 -109 345 0
-346 109 0
-346 -345 0
347 64 -322 0
-347 -64 0
-347 322 0
348 -64 322 0
-348 64 0
-348 -322 0
349 347 348 0
-349 -347 0
-349 -348 0
350 -114 349 0
-350 114 0
-350 -349 0
351 65 -322 0
-351 -65 0
-351 322 0
352 -65 322 0
-352 65 0
-352 -322 0
353 351 352 0
-353 -351 0
-353 -352 0
354 -119 353 0
-354 119 0
-354 -353 0
355 66 -322 0
-355 -66 0
-355 322 0
356 -66 322 0
-356 66 0
-356 -322 0
357 355 356 0
-357 -355 0
-357 -356 0
358 -127 357 0
-358 127 0
-358 -357 0
359 326 330 0
-359 -326 0
-359 -330 0
360 334 -359 0
-360 -334 0
-360 359 0
361 338 -360 0
-361 -338 0
-361 360 0
362 342 -361 0
-362 -342 0
-362 361 0
363 346 -362 0
-363 -346 0
-363 362 0
364 350 -363 0
-364 -350 0
-364 363 0
365 354 -364 0
-365 -354 0
-365 364 0
366 358 -365 0
-366 -358 0
-366 365 0
367 326 -366 0
-367 -326 0
-367 366 0
368 -326 366 0
-368 326 0
-368 -366 0
369 367 368 0
-369 -367 0
-369 -368 0
370 -146 325 0
-370 146 0
-370 -325 0
371 369 -370 0
-371 -369 0
-371 370 0
372 330 -366 0
-372 -330 0
-372 366 0
373 -330 366 0
-373 330 0
-373 -366 0
374 372 373 0
-374 -372 0
-374 -373 0
375 -152 329 0
-375 152 0
-375 -329 0
376 374 -375 0
-376 -374 0
-376 375 0
377 334 -366 0
-377 -334 0
-377 366 0
378 -334 366 0
-378 334 0
-378 -366 0
379 377 378 0
-379 -377 0
-379 -378 0
380 -158 333 0
-380 158 0
-380 -333 0
381 379 -380 0
-381 -379 0
-381 380 0
382 338 -366 0
-382 -338 0
-382 366 0
383 -338 366 0
-383 338 0
-383 -366 0
384 382 383 0
-384 -382 0
-384 -383 0
385 -164 337 0
-385 164 0
-385 -337 0
386 384 -385 0
-386 -384 0
-386 385 0
387 342 -366 0
-387 -342 0
-387 366 0
388 -342 366 0
-388 342 0
-388 -366 0
389 387 388 0
-389 -387 0
-389 -388 0
390 -170 341 0
-390 170 0
-390 -341 0
391 389 -390 0
-391 -389 0
-391 390 0
392 346 -366 0
-392 -346 0
-392 366 0
393 -346 366 0
-393 346 0
-393 -366 0
394 392 393 0
-394 -392 0
-394 -393 0
395 -182 345 0
-395 182 0
-395 -345 0
396 394 -395 0
-396 -394 0
-396 395 0
397 350 -366 0
-397 -350 0
-397 366 0
398 -350 366 0
-398 350 0
-398 -366 0
399 397 398 0
-399 -397 0
-399 -398 0
400 -188 349 0
-400 188 0
-400 -349 0
401 399 -400 0
-401 -399 0
-401 400 0
402 354 -366 0
-402 -354 0
-402 366 0
403 -354 366 0
-403 354 0
-403 -366 0
404 402 403 0
-404 -402 0
-404 -403 0
405 -197 353 0
-405 197 0
-405 -353 0
406 404 -405 0
-406 -404 0
-406 405 0
407 358 -366 0
-407 -358 0
-407 366 0
408 -358 366 0
-408 358 0
-408 -366 0
409 407 408 0
-409 -407 0
-409 -408 0
410 -203 357 0
-410 203 0
-410 -357 0
411 409 -410 0
-411 -409 0
-411 410 0
412 371 376 0
-412 -371 0
-412 -376 0
413 381 -412 0
-413 -381 0
-413 412 0
414 386 -413 0
-414 -386 0
-414 413 0
415 391 -414 0
-415 -391 0
-415 414 0
416 396 -415 0
-416 -396 0
-416 415 0
417 401 -416 0
-417 -401 0
-417 416 0
418 406 -417 0
-418 -406 0
-418 417 0
419 411 -418 0
-419 -411 0
-419 418 0
420 -1 322 0
-420 1 0
-420 -322 0
421 -3 366 0
-421 3 0
-421 -366 0
422 -5 419 0
-422 5 0
-422 -419 0
423 -2 420 0
-423 2 0
-423 -420 0
424 421 -423 0
-424 -421 0
-424 423 0
425 422 -424 0
-425 -422 0
-425 424 0
426 -4 322 0
-426 4 0
-426 -322 0
427 -7 366 0
-427 7 0
-427 -366 0
428 -9 419 0
-428 9 0
-428 -419 0
429 426 427 0
-429 -426 0
-429 -427 0
430 428 -429 0
-430 -428 0
-430 429 0
431 -6 -430 0
-431 6 0
-431 430 0
432 -8 322 0
-432 8 0
-432 -322 0
433 -11 366 0
-433 11 0
-433 -366 0
434 -13 419 0
-434 13 0
-434 -419 0
435 432 433 0
-435 -432 0
-435 -433 0
436 434 -435 0
-436 -434 0
-436 435 0
437 -10 -436 0
-437 10 0
-437 436 0
438 -12 322 0
-438 12 0
-438 -322 0
439 -15 366 0
-439 15 0
-439 -366 0
440 -17 419 0
-440 17 0
-440 -419 0
441 438 439 0
-441 -438 0
-441 -439 0
442 440 -441 0
-442 -440 0
-442 441 0
443 -14 -442 0
-443 14 0
-443 442 0
444 -16 322 0
-444 16 0
-444 -322 0
445 -19 366 0
-445 19 0
-445 -366 0
446 -21 419 0
-446 21 0
-446 -419 0
447 444 445 0
-447 -444 0
-447 -445 0
448 446 -447 0
-448 -446 0
-448 447 0
449 -18 -448 0
-449 18 0
-449 448 0
450 -20 322 0
-450 20 0
-450 -322 0
451 -23 366 0
-451 23 0
-451 -366 0
452 -25 419 0
-452 25 0
-452 -419 0
453 450 451 0
-453 -450 0
-453 -451 0
454 452 -453 0
-454 -452 0
-454 453 0
455 -22 -454 0
-455 22 0
-455 454 0
456 -24 322 0
-456 24 0
-456 -322 0
457 -27 366 0
-457 27 0
-457 -366 0
458 -29 419 0
-458 29 0
-458 -419 0
459 456 457 0
-459 -456 0
-459 -457 0
460 458 -459 0
-460 -458 0
-460 459 0
461 -26 -460 0
-461 26 0
-461 460 0
462 -28 322 0
-462 28 0
-462 -322 0
463 -31 366 0
-463 31 0
-463 -366 0
464 -33 419 0
-464 33 0
-464 -419 0
465 462 463 0
-465 -462 0
-465 -463 0
466 464 -465 0
-466 -464 0
-466 465 0
467 -30 -466 0
-467 30 0
-467 466 0
468 -32 322 0
-468 32 0
-468 -322 0
469 -35 366 0
-469 35 0
-469 -366 0
470 -36 419 0
-470 36 0
-470 -419 0
471 468 469 0
-471 -468 0
-471 -469 0
472 470 -471 0
-472 -470 0
-472 471 0
473 -34 -472 0
-473 34 0
-473 472 0
474 431 437 0
-474 -431 0
-474 -437 0
475 443 -474 0
-475 -443 0
-475 474 0
476 449 -475 0
-476 -449 0
-476 475 0
477 455 -476 0
-477 -455 0
-477 476 0
478 461 -477 0
-478 -461 0
-478 477 0
479 467 -478 0
-479 -467 0
-479 478 0
480 473 -479 0
-480 -473 0
-480 479 0
481 425 480 0
-481 -425 0
-481 -480 0
482 437 -443 0
-482 -437 0
-482 443 0
483 -474 482 0
-483 474 0
-483 -482 0
484 449 -483 0
-484 -449 0
-484 483 0
485 437 443 0
-485 -437 0
-485 -443 0
486 -455 -485 0
-486 455 0
-486 485 0
487 449 -486 0
-487 -449 0
-487 486 0
488 443 449 0
-488 -443 0
-488 -449 0
489 -461 -488 0
-489 461 0
-489 488 0
490 -474 487 0
-490 474 0
-490 -487 0
491 489 -490 0
-491 -489 0
-491 490 0
492 461 -485 0
-492 -461 0
-492 485 0
493 -467 -492 0
-493 467 0
-493 492 0
494 431 482 0
-494 -431 0
-494 -482 0
495 487 -494 0
-495 -487 0
-495 494 0
496 493 -495 0
-496 -493 0
-496 495 0
497 -74 322 0
-497 74 0
-497 -322 0
498 74 -322 0
-498 -74 0
-498 322 0
499 497 498 0
-499 -497 0
-499 -498 0
500 -142 366 0
-500 142 0
-500 -366 0
501 142 -366 0
-501 -142 0
-501 366 0
502 500 501 0
-502 -500 0
-502 -501 0
503 -213 419 0
-503 213 0
-503 -419 0
504 213 -419 0
-504 -213 0
-504 419 0
505 503 504 0
-505 -503 0
-505 -504 0
506 296 -481 0
-506 -296 0
-506 481 0
507 -296 481 0
-507 296 0
-507 -481 0
508 506 507 0
-508 -506 0
-508 -507 0
509 -299 484 0
-509 299 0
-509 -484 0
510 299 -484 0
-510 -299 0
-510 484 0
511 509 510 0
-511 -509 0
-511 -510 0
512 -306 491 0
-512 306 0
-512 -491 0
513 306 -491 0
-513 -306 0
-513 491 0
514 512 513 0
-514 -512 0
-514 -513 0
515 -314 496 0
-515 314 0
-515 -496 0
516 314 -496 0
-516 -314 0
-516 496 0
517 515 516 0
-517 -515 0
-517 -516 0
518 -502 -505 0
-518 502 0
-518 505 0
519 -499 -518 0
-519 499 0
-519 518 0
520 -508 -511 0
-520 508 0
-520 511 0
521 -514 -517 0
-521 514 0
-521 517 0
522 -520 -521 0
-522 520 0
-522 521 0
523 -519 -522 0
-523 519 0
-523 522 0
54 523 0
-54 -523 0
54 0
37 -524 -575 0
-37 524 0
-37 575 0
575 -525 -526 0
-575 525 0
-575 526 0
38 -527 -576 0
-38 527 0
-38 576 0
576 -528 -529 0
-576 528 0
-576 529 0
39 -530 -577 0
-39 530 0
-39 577 0
577 -531 -532 0
-577 531 0
-577 532 0
40 -533 -578 0
-40 533 0
-40 578 0
578 -534 -535 0
-578 534 0
-578 535 0
41 -536 -579 0
-41 536 0
-41 579 0
579 -537 -538 0
-579 537 0
-579 538 0
42 -539 -580 0
-42 539 0
-42 580 0
580 -540 -541 0
-580 540 0
-580 541 0
43 -542 -581 0
-43 542 0
-43 581 0
581 -543 -544 0
-581 543 0
-581 544 0
44 -545 -582 0
-44 545 0
-44 582 0
582 -546 -547 0
-582 546 0
-582 547 0
45 -548 -583 0
-45 548 0
-45 583 0
583 -549 -550 0
-583 549 0
-583 550 0
46 -551 -584 0
-46 551 0
-46 584 0
584 -552 -553 0
-584 552 0
-584 553 0
47 -554 -585 0
-47 554 0
-47 585 0
585 -555 -556 0
-585 555 0
-585 556 0
48 -557 -586 0
-48 557 0
-48 586 0
586 -558 -559 0
-586 558 0
-586 559 0
49 -560 -587 0
-49 560 0
-49 587 0
587 -561 -562 0
-587 561 0
-587 562 0
50 -563 -588 0
-50 563 0
-50 588 0
588 -564 -565 0
-588 564 0
-588 565 0
51 -566 -589 0
-51 566 0
-51 589 0
589 -567 -568 0
-589 567 0
-589 568 0
52 -569 -590 0
-52 569 0
-52 590 0
590 -570 -571 0
-590 570 0
-590 571 0
53 -572 -591 0
-53 572 0
-53 591 0
591 -573 -574 0
-591 573 0
-591 574 0
